words_hard_train/6946.qaiger
aag 134 15 0 1 119
2
4
10
18
44
52
78
86
116
124
150
158
186
190
204
269
6 2 4
8 7 4
12 4 10
14 5 11
16 13 15
20 17 19
22 16 18
24 21 23
26 7 25
28 6 24
30 27 29
32 31 11
34 30 10
36 33 35
38 8 36
40 39 35
42 29 23
46 15 44
48 14 45
50 47 49
54 51 53
56 50 52
58 55 57
60 42 59
62 43 58
64 61 63
66 65 45
68 64 44
70 67 69
72 41 70
74 73 69
76 63 57
80 49 78
82 48 79
84 81 83
88 85 87
90 84 86
92 89 91
94 76 93
96 77 92
98 95 97
100 99 79
102 98 78
104 101 103
106 74 105
108 75 104
110 107 109
112 109 103
114 97 91
118 83 116
120 82 117
122 119 121
126 123 125
128 122 124
130 127 129
132 114 131
134 115 130
136 133 135
138 137 117
140 136 116
142 139 141
144 113 142
146 145 141
148 135 129
152 121 150
154 120 151
156 153 155
160 157 159
162 156 158
164 161 163
166 148 165
168 149 164
170 167 169
172 171 151
174 170 150
176 173 175
178 146 177
180 147 176
182 179 181
184 111 183
188 154 187
192 188 191
194 189 190
196 193 195
198 169 163
200 155 186
202 201 189
206 203 205
208 202 204
210 207 209
212 199 210
214 213 209
216 196 215
218 197 214
220 217 219
222 181 175
224 198 211
226 225 213
228 227 187
230 226 186
232 229 231
234 223 232
236 235 231
238 221 236
240 184 239
242 40 71
244 243 73
246 9 37
248 244 247
250 248 39
252 112 143
254 253 145
256 251 255
258 222 233
260 259 235
262 256 261
264 220 237
266 262 265
268 240 266
i0 1 x1[0]
i1 2 y2[0]
i2 2 y2[1]
i3 1 x1[1]
i4 2 y2[2]
i5 1 x1[2]
i6 2 y2[3]
i7 1 x1[3]
i8 2 y2[4]
i9 1 x1[4]
i10 2 y2[5]
i11 1 x1[5]
i12 2 y2[6]
i13 1 x1[7]
i14 1 x1[6]
o0 bv[0]
c
simplified
  >=
    add
      subtract
        1 x1
        2 y2
      2 y2
    reverse
      -159
