words_hard_train/6946.qaiger.qdimacs
p cnf 134 358
a 1 102 9 43 79 26 62 95 0
e 2 3 4 5 6 7 8 10 11 12 13 14 15 16 17 18 19 20 21 22 23 24 25 27 28 29 30 31 32 33 34 35 36 37 38 39 40 41 42 44 45 46 47 48 49 50 51 52 53 54 55 56 57 58 59 60 61 63 64 65 66 67 68 69 70 71 72 73 74 75 76 77 78 80 81 82 83 84 85 86 87 88 89 90 91 92 93 94 96 97 98 99 100 101 103 104 105 106 107 108 109 110 111 112 113 114 115 116 117 118 119 120 121 122 123 124 125 126 127 128 129 130 131 132 133 134 0
-1 -2 3 0
1 -3 0
2 -3 0
3 -2 4 0
-3 -4 0
2 -4 0
-2 -5 6 0
2 -6 0
5 -6 0
2 5 7 0
-2 -7 0
-5 -7 0
6 7 8 0
-6 -8 0
-7 -8 0
8 9 10 0
-8 -10 0
-9 -10 0
-8 -9 11 0
8 -11 0
9 -11 0
10 11 12 0
-10 -12 0
-11 -12 0
3 12 13 0
-3 -13 0
-12 -13 0
-3 -12 14 0
3 -14 0
12 -14 0
13 14 15 0
-13 -15 0
-14 -15 0
15 5 16 0
-15 -16 0
-5 -16 0
-15 -5 17 0
15 -17 0
5 -17 0
16 17 18 0
-16 -18 0
-17 -18 0
-4 -18 19 0
4 -19 0
18 -19 0
19 17 20 0
-19 -20 0
-17 -20 0
14 11 21 0
-14 -21 0
-11 -21 0
7 -22 23 0
-7 -23 0
22 -23 0
-7 22 24 0
7 -24 0
-22 -24 0
23 24 25 0
-23 -25 0
-24 -25 0
25 26 27 0
-25 -27 0
-26 -27 0
-25 -26 28 0
25 -28 0
26 -28 0
27 28 29 0
-27 -29 0
-28 -29 0
-21 29 30 0
21 -30 0
-29 -30 0
21 -29 31 0
-21 -31 0
29 -31 0
30 31 32 0
-30 -32 0
-31 -32 0
32 22 33 0
-32 -33 0
-22 -33 0
-32 -22 34 0
32 -34 0
22 -34 0
33 34 35 0
-33 -35 0
-34 -35 0
20 -35 36 0
-20 -36 0
35 -36 0
36 34 37 0
-36 -37 0
-34 -37 0
31 28 38 0
-31 -38 0
-28 -38 0
24 -39 40 0
-24 -40 0
39 -40 0
-24 39 41 0
24 -41 0
-39 -41 0
40 41 42 0
-40 -42 0
-41 -42 0
42 43 44 0
-42 -44 0
-43 -44 0
-42 -43 45 0
42 -45 0
43 -45 0
44 45 46 0
-44 -46 0
-45 -46 0
-38 46 47 0
38 -47 0
-46 -47 0
38 -46 48 0
-38 -48 0
46 -48 0
47 48 49 0
-47 -49 0
-48 -49 0
49 39 50 0
-49 -50 0
-39 -50 0
-49 -39 51 0
49 -51 0
39 -51 0
50 51 52 0
-50 -52 0
-51 -52 0
-37 52 53 0
37 -53 0
-52 -53 0
37 -52 54 0
-37 -54 0
52 -54 0
53 54 55 0
-53 -55 0
-54 -55 0
54 51 56 0
-54 -56 0
-51 -56 0
48 45 57 0
-48 -57 0
-45 -57 0
41 -58 59 0
-41 -59 0
58 -59 0
-41 58 60 0
41 -60 0
-58 -60 0
59 60 61 0
-59 -61 0
-60 -61 0
61 62 63 0
-61 -63 0
-62 -63 0
-61 -62 64 0
61 -64 0
62 -64 0
63 64 65 0
-63 -65 0
-64 -65 0
-57 65 66 0
57 -66 0
-65 -66 0
57 -65 67 0
-57 -67 0
65 -67 0
66 67 68 0
-66 -68 0
-67 -68 0
68 58 69 0
-68 -69 0
-58 -69 0
-68 -58 70 0
68 -70 0
58 -70 0
69 70 71 0
-69 -71 0
-70 -71 0
56 -71 72 0
-56 -72 0
71 -72 0
72 70 73 0
-72 -73 0
-70 -73 0
67 64 74 0
-67 -74 0
-64 -74 0
60 -75 76 0
-60 -76 0
75 -76 0
-60 75 77 0
60 -77 0
-75 -77 0
76 77 78 0
-76 -78 0
-77 -78 0
78 79 80 0
-78 -80 0
-79 -80 0
-78 -79 81 0
78 -81 0
79 -81 0
80 81 82 0
-80 -82 0
-81 -82 0
-74 82 83 0
74 -83 0
-82 -83 0
74 -82 84 0
-74 -84 0
82 -84 0
83 84 85 0
-83 -85 0
-84 -85 0
85 75 86 0
-85 -86 0
-75 -86 0
-85 -75 87 0
85 -87 0
75 -87 0
86 87 88 0
-86 -88 0
-87 -88 0
-73 88 89 0
73 -89 0
-88 -89 0
73 -88 90 0
-73 -90 0
88 -90 0
89 90 91 0
-89 -91 0
-90 -91 0
55 91 92 0
-55 -92 0
-91 -92 0
-77 93 94 0
77 -94 0
-93 -94 0
-94 95 96 0
94 -96 0
-95 -96 0
94 -95 97 0
-94 -97 0
95 -97 0
96 97 98 0
-96 -98 0
-97 -98 0
84 81 99 0
-84 -99 0
-81 -99 0
77 -93 100 0
-77 -100 0
93 -100 0
100 94 101 0
-100 -101 0
-94 -101 0
101 102 103 0
-101 -103 0
-102 -103 0
-101 -102 104 0
101 -104 0
102 -104 0
103 104 105 0
-103 -105 0
-104 -105 0
99 -105 106 0
-99 -106 0
105 -106 0
106 104 107 0
-106 -107 0
-104 -107 0
-98 107 108 0
98 -108 0
-107 -108 0
98 -107 109 0
-98 -109 0
107 -109 0
108 109 110 0
-108 -110 0
-109 -110 0
90 87 111 0
-90 -111 0
-87 -111 0
-99 105 112 0
99 -112 0
-105 -112 0
112 106 113 0
-112 -113 0
-106 -113 0
113 93 114 0
-113 -114 0
-93 -114 0
-113 -93 115 0
113 -115 0
93 -115 0
114 115 116 0
-114 -116 0
-115 -116 0
111 -116 117 0
-111 -117 0
116 -117 0
117 115 118 0
-117 -118 0
-115 -118 0
110 -118 119 0
-110 -119 0
118 -119 0
-92 119 120 0
92 -120 0
-119 -120 0
-20 35 121 0
20 -121 0
-35 -121 0
121 36 122 0
-121 -122 0
-36 -122 0
4 18 123 0
-4 -123 0
-18 -123 0
-122 123 124 0
122 -124 0
-123 -124 0
-124 19 125 0
124 -125 0
-19 -125 0
-56 71 126 0
56 -126 0
-71 -126 0
126 72 127 0
-126 -127 0
-72 -127 0
125 127 128 0
-125 -128 0
-127 -128 0
-111 116 129 0
111 -129 0
-116 -129 0
129 117 130 0
-129 -130 0
-117 -130 0
-128 130 131 0
128 -131 0
-130 -131 0
-110 118 132 0
110 -132 0
-118 -132 0
-131 132 133 0
131 -133 0
-132 -133 0
-120 -133 134 0
120 -134 0
133 -134 0
-134 0
